p cnf 250 375
1 114 0
1 113 0
1 73 0
2 186 0
2 145 0
2 5 0
3 237 0
3 50 0
3 249 0
4 230 0
4 240 0
4 86 0
5 104 0
5 95 0
6 106 0
6 202 0
6 247 0
7 204 0
7 33 0
7 142 0
8 92 0
8 104 0
8 58 0
9 143 0
9 201 0
9 70 0
10 245 0
10 178 0
10 181 0
11 84 0
11 208 0
11 243 0
12 127 0
12 147 0
12 118 0
13 158 0
13 169 0
13 108 0
14 138 0
14 207 0
14 67 0
15 181 0
15 91 0
15 195 0
16 182 0
16 165 0
16 173 0
17 73 0
17 37 0
17 113 0
18 233 0
18 185 0
18 249 0
19 195 0
19 213 0
19 119 0
20 137 0
20 129 0
20 249 0
21 25 0
21 210 0
21 98 0
22 124 0
22 218 0
22 120 0
23 40 0
23 50 0
23 65 0
24 35 0
24 191 0
24 166 0
25 220 0
25 94 0
26 164 0
26 189 0
26 97 0
27 155 0
27 74 0
27 128 0
28 32 0
28 85 0
28 135 0
29 160 0
29 140 0
29 116 0
30 210 0
30 122 0
30 188 0
31 117 0
31 171 0
31 107 0
32 63 0
32 45 0
33 51 0
33 127 0
34 154 0
34 213 0
34 130 0
35 188 0
35 140 0
36 54 0
36 184 0
36 115 0
37 204 0
37 244 0
38 64 0
38 149 0
38 169 0
39 152 0
39 116 0
39 239 0
40 237 0
40 69 0
41 133 0
41 245 0
41 158 0
42 81 0
42 101 0
42 193 0
43 114 0
43 103 0
43 102 0
44 146 0
44 194 0
44 51 0
45 53 0
45 123 0
46 68 0
46 233 0
46 141 0
47 61 0
47 183 0
47 101 0
48 170 0
48 125 0
48 90 0
49 91 0
49 56 0
49 175 0
50 212 0
51 108 0
52 231 0
52 244 0
52 227 0
53 248 0
53 227 0
54 59 0
54 65 0
55 192 0
55 107 0
55 214 0
56 195 0
56 225 0
57 106 0
57 87 0
57 123 0
58 190 0
58 110 0
59 85 0
59 200 0
60 163 0
60 182 0
60 174 0
61 77 0
61 95 0
62 82 0
62 153 0
62 236 0
63 229 0
63 120 0
64 105 0
64 70 0
65 232 0
66 209 0
66 135 0
66 102 0
67 168 0
67 151 0
68 185 0
68 202 0
69 221 0
69 152 0
70 160 0
71 248 0
71 118 0
71 170 0
72 230 0
72 222 0
72 149 0
73 94 0
74 90 0
74 243 0
75 88 0
75 176 0
75 129 0
76 218 0
76 162 0
76 210 0
77 203 0
77 130 0
78 216 0
78 158 0
78 120 0
79 234 0
79 112 0
79 185 0
80 127 0
80 231 0
80 116 0
81 136 0
81 165 0
82 212 0
82 234 0
83 226 0
83 200 0
83 96 0
84 98 0
84 181 0
85 163 0
86 169 0
86 245 0
87 238 0
87 203 0
88 198 0
88 89 0
89 177 0
89 180 0
90 229 0
91 147 0
92 162 0
92 151 0
93 104 0
93 132 0
93 241 0
94 149 0
95 174 0
96 105 0
96 133 0
97 203 0
97 229 0
98 164 0
99 194 0
99 142 0
99 187 0
100 177 0
100 162 0
100 134 0
101 109 0
102 103 0
103 147 0
105 234 0
106 178 0
107 172 0
108 194 0
109 183 0
109 172 0
110 150 0
110 184 0
111 173 0
111 124 0
111 122 0
112 141 0
112 159 0
113 155 0
114 117 0
115 213 0
115 192 0
117 125 0
118 225 0
119 199 0
119 240 0
121 215 0
121 206 0
121 199 0
122 215 0
123 235 0
124 228 0
125 177 0
126 237 0
126 154 0
126 145 0
128 238 0
128 223 0
129 155 0
130 196 0
131 178 0
131 197 0
131 148 0
132 152 0
132 209 0
133 138 0
134 200 0
134 207 0
135 214 0
136 184 0
136 187 0
137 202 0
137 153 0
138 246 0
139 205 0
139 242 0
139 248 0
140 218 0
141 171 0
142 150 0
143 212 0
143 220 0
144 145 0
144 217 0
144 172 0
146 180 0
146 247 0
148 224 0
148 191 0
150 223 0
151 159 0
153 179 0
154 206 0
156 205 0
156 161 0
156 191 0
157 240 0
157 226 0
157 176 0
159 206 0
160 170 0
161 167 0
161 179 0
163 171 0
164 225 0
165 204 0
166 219 0
166 241 0
167 187 0
167 189 0
168 192 0
168 224 0
173 196 0
174 214 0
175 186 0
175 235 0
176 199 0
179 228 0
180 190 0
182 230 0
183 239 0
186 215 0
188 244 0
189 239 0
190 193 0
193 241 0
196 232 0
197 250 0
197 233 0
198 246 0
198 227 0
201 235 0
201 209 0
205 223 0
207 221 0
208 242 0
208 219 0
211 242 0
211 222 0
211 219 0
216 243 0
216 226 0
217 232 0
217 231 0
220 236 0
221 250 0
222 247 0
224 250 0
228 246 0
236 238 0
g -151